(set-logic ALL)
(set-option :produce-models true)
(declare-sort BoundSet 0)
(declare-sort UnboundSet 0)
(declare-fun IsRiding (BoundSet BoundSet) Bool)
(declare-fun IsInLargeCrowd (BoundSet) Bool)
(declare-fun IsPayingAttentionTo (BoundSet) Bool)
(declare-fun ( (Bool) Bool)
(assert (not (=> (exists ((a BoundSet)) (exists ((b BoundSet)) (IsRiding a b))) (exists ((c BoundSet)) (exists ((d BoundSet)) (( (and (IsInLargeCrowd c) (IsPayingAttentionTo d))))))))
(check-sat)
(get-model)